language ESSENCE' 1.0
letting AssignmentMatrix be [[1, 1, 0, 1, 0, 0, 1, 1, 1, 0, 1, 1, 0, 0, 1], 
[0, 0, 0, 1, 0, 0, 1, 1, 1, 0, 1, 1, 1, 0, 1], 
[0, 0, 0, 0, 0, 0, 0, 0, 0, 0, 0, 0, 0, 0, 0], 
[0, 0, 0, 0, 1, 1, 0, 0, 0, 1, 0, 0, 0, 0, 0], 
[0, 0, 1, 0, 0, 0, 0, 0, 0, 0, 0, 0, 0, 1, 0]]
letting OccupancyVector be [1, 1, 1, 1, 1, 1, 1, 1, 1, 1, 1, 1, 1, 1, 1]
letting Price be [116, 116, 210, 350, 350, 350, 350, 350, 350, 350, 350, 350, 350, 379, 379]
letting VMType be [433, 433, 341, 316, 316, 316, 316, 316, 316, 316, 316, 316, 316, 345, 345]
